
P = 1;

n = 10;

m = 10;

w1 = 1.00;

w2 = 5.00;

L = 3.00;

g = 1.26;

t = 
[[68,89,92,88,98,78,96,68,93,68],
[83,73,73,68,70,94,67,86,68,69],
[80,66,88,97,69,90,83,93,63,77],
[73,72,66,65,92,96,75,88,97,69],
[96,80,74,61,80,84,88,87,70,88],
[96,82,94,77,79,63,99,62,88,63],
[80,61,67,78,99,91,75,74,79,72],
[75,67,84,89,69,64,65,89,83,75],
[77,80,98,71,89,69,67,88,72,95],
[83,84,89,90,62,80,81,69,86,92]];
